<instance format="XCSP3" type="CSP">
  <variables>
    <var id="x0"> 6 7 13 </var>
    <var id="x1"> 0 1 7 13 </var>
    <var id="x2"> 0 1 5 7 8 </var>
    <var id="x3"> 1 5 6 </var>
    <var id="x4"> 1 5 6 8 </var>
    <var id="x5"> 1 5 6 8 13 </var>
    <var id="x6"> 0 5 6 8 </var>
    <var id="x7"> 2 3 </var>
    <var id="x8"> 8 </var>
    <var id="x9"> 1 4 5 8 9 </var>
    <var id="x10"> 1 5 9 </var>
    <var id="x11"> 1 3 5 8 9 </var>
    <var id="x12"> 1 2 5 8 </var>
    <var id="x13"> 2 5 8 9 </var>
    <var id="x14"> 2 6 11 13 </var>
    <var id="x15"> 1 13 </var>
    <var id="x16"> 1 2 4 6 </var>
    <var id="x17"> 1 2 5 13 </var>
    <var id="x18"> 2 4 5 11 13 </var>
    <var id="x19"> 2 4..6 </var>
    <var id="x20"> 2 5 13 </var>
    <var id="x21"> 2 6 10 11 13 </var>
    <var id="x22"> 1 2 6 </var>
    <var id="x23"> 0 6 11 13 </var>
    <var id="x24"> 0 1 11 13 </var>
    <var id="x25"> 0 1 5 10 </var>
    <var id="x26"> 1 5 6 10 11 </var>
    <var id="x27"> 1 5 6 </var>
    <var id="x28"> 1 2 5 6 10 13 </var>
    <var id="x29"> 0 1 7 9 </var>
    <var id="x30"> 0 11 </var>
    <var id="x31"> 1 9 10 </var>
    <var id="x32"> 1 5 9 10 </var>
    <var id="x33"> 0 1 5 7 9 10 </var>
    <var id="x34"> 1 5 9 </var>
    <var id="x35"> 1 5 10 </var>
    <var id="x36"> 3 6 7 13 </var>
    <var id="x37"> 6 8 13 14 </var>
    <var id="x38"> 1 6 8 </var>
    <var id="x39"> 3 13 </var>
    <var id="x40"> 1 6 8 </var>
    <var id="x41"> 1 3 6 8 14 </var>
    <var id="x42"> 1 6 8 13 </var>
    <var id="x43"> 9 14 </var>
    <var id="x44"> 2 4 14 </var>
    <var id="x45"> 4 8..10 12 </var>
    <var id="x46"> 2 9 10 14 </var>
    <var id="x47"> 4 8 9 12 </var>
    <var id="x48"> 2 8 10 </var>
    <var id="x49"> 2 8 9 14 </var>
    <var id="x50"> 1 3 9 13 </var>
    <var id="x51"> 1 3 4 </var>
    <var id="x52"> 1 3 13 </var>
    <var id="x53"> 3..5 10 13 </var>
    <var id="x54"> 1 5 9 10 </var>
    <var id="x55"> 1 3 5 9 </var>
    <var id="x56"> 4 5 10 </var>
    <var id="x57"> 3 6 14 </var>
    <var id="x58"> 6 12 14 </var>
    <var id="x59"> 6 9 10 12 </var>
    <var id="x60"> 5 9 10 14 </var>
    <var id="x61"> 3 12 </var>
    <var id="x62"> 5 6 10 </var>
    <var id="x63"> 5 9 14 </var>
    <var id="x64"> 0 1 7 9 14 </var>
    <var id="x65"> 1 6 9 </var>
    <var id="x66"> 1 2 9 14 </var>
    <var id="x67"> 2 </var>
    <var id="x68"> 1 6 9 14 </var>
    <var id="x69"> 1 6 9 </var>
    <var id="x70"> 0 2 6 </var>
    <var id="x71"> 0 6 8 11 </var>
    <var id="x72"> 2 5 </var>
    <var id="x73"> 0 11 </var>
    <var id="x74"> 5 6 11 </var>
    <var id="x75"> 4..6 8 </var>
    <var id="x76"> 5 6 8 </var>
    <var id="x77"> 0 2 4..6 8 </var>
    <var id="x78"> 1 3 14 </var>
    <var id="x79"> 1 3 12 13 </var>
    <var id="x80"> 1 8 10 </var>
    <var id="x81"> 1 10 14 </var>
    <var id="x82"> 1 8 12 </var>
    <var id="x83"> 1 3 8 14 </var>
    <var id="x84"> 8 13 14 </var>
    <var id="x85"> 2 6 13 </var>
    <var id="x86"> 9 13 14 </var>
    <var id="x87"> 6 8 12..14 </var>
    <var id="x88"> 6 8 9 12 </var>
    <var id="x89"> 2 9 13 14 </var>
    <var id="x90"> 2 13 </var>
    <var id="x91"> 8 9 </var>
    <var id="x92"> 3 7 10 11 </var>
    <var id="x93"> 0 1 3 7 </var>
    <var id="x94"> 1 3 7 </var>
    <var id="x95"> 3 10 11 </var>
    <var id="x96"> 0 1 7 8 10 </var>
    <var id="x97"> 1 8 10 </var>
    <var id="x98"> 0 8 </var>
    <var id="x99"> 4 6 9 10 </var>
    <var id="x100"> 13 </var>
    <var id="x101"> 4 5 10 13 </var>
    <var id="x102"> 4 5 9 10 </var>
    <var id="x103"> 4..6 9 </var>
    <var id="x104"> 4..6 10 </var>
    <var id="x105"> 5 9 13 14 </var>
  </variables>
  <constraints>
    <group>
      <allDifferent> %... </allDifferent>
      <args> x0 x1 x2 x3 x4 x5 x6 </args>
      <args> x7 x8 x9 x10 x11 x12 x13 </args>
      <args> x14 x15 x16 x17 x18 x19 x20 </args>
      <args> x21 x22 x23 x24 x25 x26 x27 x28 </args>
      <args> x29 x30 x31 x32 x33 x34 x35 </args>
      <args> x36 x37 x38 x39 x40 x41 x42 </args>
      <args> x43 x44 x45 x46 x47 x48 x49 </args>
      <args> x50 x51 x52 x53 x54 x55 x56 </args>
      <args> x57 x58 x59 x60 x61 x62 x63 </args>
      <args> x64 x65 x66 x67 x68 x69 x70 </args>
      <args> x71 x72 x73 x74 x75 x76 x77 </args>
      <args> x78 x79 x80 x81 x82 x83 x84 </args>
      <args> x85 x86 x87 x88 x89 x90 x91 </args>
      <args> x92 x93 x94 x95 x96 x97 x98 </args>
      <args> x99 x100 x101 x102 x103 x104 x105 </args>
      <args> x0 x7 x14 x21 x36 x85 x92 </args>
      <args> x15 x29 x43 x50 x64 x86 x93 </args>
      <args> x16 x22 x44 x51 x57 x78 x94 </args>
      <args> x8 x23 x30 x37 x58 x71 x87 </args>
      <args> x31 x38 x45 x59 x65 x88 x99 </args>
      <args> x17 x32 x46 x60 x66 x72 x89 </args>
      <args> x1 x24 x52 x61 x73 x79 x100 </args>
      <args> x18 x39 x53 x67 x90 x95 x101 </args>
      <args> x2 x9 x25 x33 x80 x91 x96 x102 </args>
      <args> x3 x10 x26 x54 x68 x74 x81 </args>
      <args> x34 x40 x47 x69 x75 x82 x103 </args>
      <args> x4 x11 x27 x41 x55 x76 x83 </args>
      <args> x5 x12 x28 x35 x42 x48 x97 </args>
      <args> x6 x19 x56 x62 x70 x77 x104 </args>
      <args> x13 x20 x49 x63 x84 x98 x105 </args>
    </group>
  </constraints>
</instance>

